NAME: ../File/prFile/tspFile/tsp_file31.tsp
COMMENT: TSP file generated by Python
TYPE: TSP
DIMENSION: 30
EDGE_WEIGHT_TYPE: EUC_2D
NODE_COORD_SECTION
1 62 88
2 7 52
3 42 65
4 59 41
5 18 43
6 51 27
7 42 100
8 10 19
9 53 43
10 24 50
11 42 18
12 27 73
13 59 35
14 78 66
15 52 85
16 49 85
17 92 45
18 21 19
19 85 62
20 83 64
21 57 79
22 3 25
23 27 88
24 60 51
25 47 43
26 26 9
27 93 73
28 59 64
29 3 29
30 27 15
EOF
